problems/csplib-prob013-decision/ProgressivePartyProblem-models/01_noch_lvlPruned/O0/minion/model_2-Ian07-10-solution000001.solution
language Essence 1.3

letting hosts be {1, 2, 3, 4, 5, 6, 7, 8, 9, 10}
letting sched be
        {function(1 --> 1, 2 --> 2, 3 --> 3, 4 --> 4, 5 --> 5, 6 --> 6, 7 --> 7, 8 --> 8, 9 --> 9, 10 --> 10, 11 --> 1),
         function(1 --> 1, 2 --> 2, 3 --> 3, 4 --> 4, 5 --> 5, 6 --> 6, 7 --> 7, 8 --> 8, 9 --> 9, 10 --> 10, 11 --> 2),
         function(1 --> 1, 2 --> 2, 3 --> 3, 4 --> 4, 5 --> 5, 6 --> 6, 7 --> 7, 8 --> 8, 9 --> 9, 10 --> 10, 11 --> 3),
         function(1 --> 1, 2 --> 2, 3 --> 3, 4 --> 4, 5 --> 5, 6 --> 6, 7 --> 7, 8 --> 8, 9 --> 9, 10 --> 10, 11 --> 4),
         function(1 --> 1, 2 --> 2, 3 --> 3, 4 --> 4, 5 --> 5, 6 --> 6, 7 --> 7, 8 --> 8, 9 --> 9, 10 --> 10, 11 --> 5)}
$ Visualisation for sched
$  1  2  3  4  5  6  7  8  9 10  1
$  1  2  3  4  5  6  7  8  9 10  2
$  1  2  3  4  5  6  7  8  9 10  3
$  1  2  3  4  5  6  7  8  9 10  4
$  1  2  3  4  5  6  7  8  9 10  5

